p cnf 319 994
10 0
11 0
13 18 0
-13 -18 0
-13 -260 232 0
-13 -260 26 0
-140 -261 235 0
-140 -261 30 0
-145 -262 238 0
-145 -262 34 0
-150 -263 241 0
-150 -263 38 0
-155 -264 244 0
-155 -264 42 0
-160 -265 247 0
-160 -265 46 0
-165 -266 250 0
-165 -266 50 0
-170 -267 253 0
-170 -267 54 0
-175 -268 256 0
-175 -268 58 0
-180 -269 259 0
-180 -269 62 0
-18 -270 232 0
-18 -270 63 0
-186 -271 235 0
-186 -271 67 0
-191 -272 238 0
-191 -272 71 0
-196 -273 241 0
-196 -273 75 0
-201 -274 244 0
-201 -274 79 0
-206 -275 247 0
-206 -275 83 0
-211 -276 250 0
-211 -276 87 0
-216 -277 253 0
-216 -277 91 0
-221 -278 256 0
-221 -278 95 0
-226 -279 259 0
-226 -279 99 0
-13 -9 -280 26 0
-13 -9 -280 140 0
-13 -9 -280 -140 0
-140 -100 -281 30 0
-140 -100 -281 145 0
-140 -100 -281 -145 0
-145 -101 -282 34 0
-145 -101 -282 150 0
-145 -101 -282 -150 0
-150 -102 -283 38 0
-150 -102 -283 155 0
-150 -102 -283 -155 0
-155 -103 -284 42 0
-155 -103 -284 160 0
-155 -103 -284 -160 0
-160 -104 -285 46 0
-160 -104 -285 165 0
-160 -104 -285 -165 0
-165 -105 -286 50 0
-165 -105 -286 170 0
-165 -105 -286 -170 0
-170 -106 -287 54 0
-170 -106 -287 175 0
-170 -106 -287 -175 0
-175 -107 -288 58 0
-175 -107 -288 180 0
-175 -107 -288 -180 0
-180 -108 -289 62 0
-180 -108 -289 185 0
-180 -108 -289 -185 0
-13 -10 -290 63 0
-13 -10 -290 186 0
-13 -10 -290 -140 0
-140 -110 -291 67 0
-140 -110 -291 191 0
-140 -110 -291 -145 0
-145 -111 -292 71 0
-145 -111 -292 196 0
-145 -111 -292 -150 0
-150 -112 -293 75 0
-150 -112 -293 201 0
-150 -112 -293 -155 0
-155 -113 -294 79 0
-155 -113 -294 206 0
-155 -113 -294 -160 0
-160 -114 -295 83 0
-160 -114 -295 211 0
-160 -114 -295 -165 0
-165 -115 -296 87 0
-165 -115 -296 216 0
-165 -115 -296 -170 0
-170 -116 -297 91 0
-170 -116 -297 221 0
-170 -116 -297 -175 0
-175 -117 -298 95 0
-175 -117 -298 226 0
-175 -117 -298 -180 0
-180 -118 -299 99 0
-180 -118 -299 231 0
-180 -118 -299 -185 0
-18 -11 -300 26 0
-18 -11 -300 140 0
-18 -11 -300 -186 0
-186 -120 -301 30 0
-186 -120 -301 145 0
-186 -120 -301 -191 0
-191 -121 -302 34 0
-191 -121 -302 150 0
-191 -121 -302 -196 0
-196 -122 -303 38 0
-196 -122 -303 155 0
-196 -122 -303 -201 0
-201 -123 -304 42 0
-201 -123 -304 160 0
-201 -123 -304 -206 0
-206 -124 -305 46 0
-206 -124 -305 165 0
-206 -124 -305 -211 0
-211 -125 -306 50 0
-211 -125 -306 170 0
-211 -125 -306 -216 0
-216 -126 -307 54 0
-216 -126 -307 175 0
-216 -126 -307 -221 0
-221 -127 -308 58 0
-221 -127 -308 180 0
-221 -127 -308 -226 0
-226 -128 -309 62 0
-226 -128 -309 185 0
-226 -128 -309 -231 0
-18 -12 -310 63 0
-18 -12 -310 186 0
-18 -12 -310 -186 0
-186 -130 -311 67 0
-186 -130 -311 191 0
-186 -130 -311 -191 0
-191 -131 -312 71 0
-191 -131 -312 196 0
-191 -131 -312 -196 0
-196 -132 -313 75 0
-196 -132 -313 201 0
-196 -132 -313 -201 0
-201 -133 -314 79 0
-201 -133 -314 206 0
-201 -133 -314 -206 0
-206 -134 -315 83 0
-206 -134 -315 211 0
-206 -134 -315 -211 0
-211 -135 -316 87 0
-211 -135 -316 216 0
-211 -135 -316 -216 0
-216 -136 -317 91 0
-216 -136 -317 221 0
-216 -136 -317 -221 0
-221 -137 -318 95 0
-221 -137 -318 226 0
-221 -137 -318 -226 0
-226 -138 -319 99 0
-226 -138 -319 231 0
-226 -138 -319 -231 0
-1 26 0
-13 -260 2 0
-2 13 0
-2 260 0
-13 -9 -280 3 0
-3 13 0
-3 9 0
-3 280 0
-18 -11 -300 4 0
-4 18 0
-4 11 0
-4 300 0
2 3 4 1 -26 0
-26 30 0
-140 -261 27 0
-27 140 0
-27 261 0
-140 -100 -281 28 0
-28 140 0
-28 100 0
-28 281 0
-186 -120 -301 29 0
-29 186 0
-29 120 0
-29 301 0
27 28 29 26 -30 0
-30 34 0
-145 -262 31 0
-31 145 0
-31 262 0
-145 -101 -282 32 0
-32 145 0
-32 101 0
-32 282 0
-191 -121 -302 33 0
-33 191 0
-33 121 0
-33 302 0
31 32 33 30 -34 0
-34 38 0
-150 -263 35 0
-35 150 0
-35 263 0
-150 -102 -283 36 0
-36 150 0
-36 102 0
-36 283 0
-196 -122 -303 37 0
-37 196 0
-37 122 0
-37 303 0
35 36 37 34 -38 0
-38 42 0
-155 -264 39 0
-39 155 0
-39 264 0
-155 -103 -284 40 0
-40 155 0
-40 103 0
-40 284 0
-201 -123 -304 41 0
-41 201 0
-41 123 0
-41 304 0
39 40 41 38 -42 0
-42 46 0
-160 -265 43 0
-43 160 0
-43 265 0
-160 -104 -285 44 0
-44 160 0
-44 104 0
-44 285 0
-206 -124 -305 45 0
-45 206 0
-45 124 0
-45 305 0
43 44 45 42 -46 0
-46 50 0
-165 -266 47 0
-47 165 0
-47 266 0
-165 -105 -286 48 0
-48 165 0
-48 105 0
-48 286 0
-211 -125 -306 49 0
-49 211 0
-49 125 0
-49 306 0
47 48 49 46 -50 0
-50 54 0
-170 -267 51 0
-51 170 0
-51 267 0
-170 -106 -287 52 0
-52 170 0
-52 106 0
-52 287 0
-216 -126 -307 53 0
-53 216 0
-53 126 0
-53 307 0
51 52 53 50 -54 0
-54 58 0
-175 -268 55 0
-55 175 0
-55 268 0
-175 -107 -288 56 0
-56 175 0
-56 107 0
-56 288 0
-221 -127 -308 57 0
-57 221 0
-57 127 0
-57 308 0
55 56 57 54 -58 0
-58 62 0
-180 -269 59 0
-59 180 0
-59 269 0
-180 -108 -289 60 0
-60 180 0
-60 108 0
-60 289 0
-226 -128 -309 61 0
-61 226 0
-61 128 0
-61 309 0
59 60 61 58 -62 0
-5 63 0
-18 -270 6 0
-6 18 0
-6 270 0
-13 -10 -290 7 0
-7 13 0
-7 10 0
-7 290 0
-18 -12 -310 8 0
-8 18 0
-8 12 0
-8 310 0
6 7 8 5 -63 0
-63 67 0
-186 -271 64 0
-64 186 0
-64 271 0
-140 -110 -291 65 0
-65 140 0
-65 110 0
-65 291 0
-186 -130 -311 66 0
-66 186 0
-66 130 0
-66 311 0
64 65 66 63 -67 0
-67 71 0
-191 -272 68 0
-68 191 0
-68 272 0
-145 -111 -292 69 0
-69 145 0
-69 111 0
-69 292 0
-191 -131 -312 70 0
-70 191 0
-70 131 0
-70 312 0
68 69 70 67 -71 0
-71 75 0
-196 -273 72 0
-72 196 0
-72 273 0
-150 -112 -293 73 0
-73 150 0
-73 112 0
-73 293 0
-196 -132 -313 74 0
-74 196 0
-74 132 0
-74 313 0
72 73 74 71 -75 0
-75 79 0
-201 -274 76 0
-76 201 0
-76 274 0
-155 -113 -294 77 0
-77 155 0
-77 113 0
-77 294 0
-201 -133 -314 78 0
-78 201 0
-78 133 0
-78 314 0
76 77 78 75 -79 0
-79 83 0
-206 -275 80 0
-80 206 0
-80 275 0
-160 -114 -295 81 0
-81 160 0
-81 114 0
-81 295 0
-206 -134 -315 82 0
-82 206 0
-82 134 0
-82 315 0
80 81 82 79 -83 0
-83 87 0
-211 -276 84 0
-84 211 0
-84 276 0
-165 -115 -296 85 0
-85 165 0
-85 115 0
-85 296 0
-211 -135 -316 86 0
-86 211 0
-86 135 0
-86 316 0
84 85 86 83 -87 0
-87 91 0
-216 -277 88 0
-88 216 0
-88 277 0
-170 -116 -297 89 0
-89 170 0
-89 116 0
-89 297 0
-216 -136 -317 90 0
-90 216 0
-90 136 0
-90 317 0
88 89 90 87 -91 0
-91 95 0
-221 -278 92 0
-92 221 0
-92 278 0
-175 -117 -298 93 0
-93 175 0
-93 117 0
-93 298 0
-221 -137 -318 94 0
-94 221 0
-94 137 0
-94 318 0
92 93 94 91 -95 0
-95 99 0
-226 -279 96 0
-96 226 0
-96 279 0
-180 -118 -299 97 0
-97 180 0
-97 118 0
-97 299 0
-226 -138 -319 98 0
-98 226 0
-98 138 0
-98 319 0
96 97 98 95 -99 0
-9 100 0
9 -100 0
-100 101 0
100 -101 0
-101 102 0
101 -102 0
-102 103 0
102 -103 0
-103 104 0
103 -104 0
-104 105 0
104 -105 0
-105 106 0
105 -106 0
-106 107 0
106 -107 0
-107 108 0
107 -108 0
-108 109 0
108 -109 0
-10 110 0
10 -110 0
-110 111 0
110 -111 0
-111 112 0
111 -112 0
-112 113 0
112 -113 0
-113 114 0
113 -114 0
-114 115 0
114 -115 0
-115 116 0
115 -116 0
-116 117 0
116 -117 0
-117 118 0
117 -118 0
-118 119 0
118 -119 0
-11 120 0
11 -120 0
-120 121 0
120 -121 0
-121 122 0
121 -122 0
-122 123 0
122 -123 0
-123 124 0
123 -124 0
-124 125 0
124 -125 0
-125 126 0
125 -126 0
-126 127 0
126 -127 0
-127 128 0
127 -128 0
-128 129 0
128 -129 0
-12 130 0
12 -130 0
-130 131 0
130 -131 0
-131 132 0
131 -132 0
-132 133 0
132 -133 0
-133 134 0
133 -134 0
-134 135 0
134 -135 0
-135 136 0
135 -136 0
-136 137 0
136 -137 0
-137 138 0
137 -138 0
-138 139 0
138 -139 0
-13 -9 -280 14 0
-14 13 0
-14 9 0
-14 280 0
-13 -10 -290 15 0
-15 13 0
-15 10 0
-15 290 0
14 15 -13 140 0
-13 -9 -280 16 0
-16 13 0
-16 9 0
-16 280 0
-18 -11 -300 17 0
-17 18 0
-17 11 0
-17 300 0
16 17 13 -140 0
-140 -100 -281 141 0
-141 140 0
-141 100 0
-141 281 0
-140 -110 -291 142 0
-142 140 0
-142 110 0
-142 291 0
141 142 -140 145 0
-140 -100 -281 143 0
-143 140 0
-143 100 0
-143 281 0
-186 -120 -301 144 0
-144 186 0
-144 120 0
-144 301 0
143 144 140 -145 0
-145 -101 -282 146 0
-146 145 0
-146 101 0
-146 282 0
-145 -111 -292 147 0
-147 145 0
-147 111 0
-147 292 0
146 147 -145 150 0
-145 -101 -282 148 0
-148 145 0
-148 101 0
-148 282 0
-191 -121 -302 149 0
-149 191 0
-149 121 0
-149 302 0
148 149 145 -150 0
-150 -102 -283 151 0
-151 150 0
-151 102 0
-151 283 0
-150 -112 -293 152 0
-152 150 0
-152 112 0
-152 293 0
151 152 -150 155 0
-150 -102 -283 153 0
-153 150 0
-153 102 0
-153 283 0
-196 -122 -303 154 0
-154 196 0
-154 122 0
-154 303 0
153 154 150 -155 0
-155 -103 -284 156 0
-156 155 0
-156 103 0
-156 284 0
-155 -113 -294 157 0
-157 155 0
-157 113 0
-157 294 0
156 157 -155 160 0
-155 -103 -284 158 0
-158 155 0
-158 103 0
-158 284 0
-201 -123 -304 159 0
-159 201 0
-159 123 0
-159 304 0
158 159 155 -160 0
-160 -104 -285 161 0
-161 160 0
-161 104 0
-161 285 0
-160 -114 -295 162 0
-162 160 0
-162 114 0
-162 295 0
161 162 -160 165 0
-160 -104 -285 163 0
-163 160 0
-163 104 0
-163 285 0
-206 -124 -305 164 0
-164 206 0
-164 124 0
-164 305 0
163 164 160 -165 0
-165 -105 -286 166 0
-166 165 0
-166 105 0
-166 286 0
-165 -115 -296 167 0
-167 165 0
-167 115 0
-167 296 0
166 167 -165 170 0
-165 -105 -286 168 0
-168 165 0
-168 105 0
-168 286 0
-211 -125 -306 169 0
-169 211 0
-169 125 0
-169 306 0
168 169 165 -170 0
-170 -106 -287 171 0
-171 170 0
-171 106 0
-171 287 0
-170 -116 -297 172 0
-172 170 0
-172 116 0
-172 297 0
171 172 -170 175 0
-170 -106 -287 173 0
-173 170 0
-173 106 0
-173 287 0
-216 -126 -307 174 0
-174 216 0
-174 126 0
-174 307 0
173 174 170 -175 0
-175 -107 -288 176 0
-176 175 0
-176 107 0
-176 288 0
-175 -117 -298 177 0
-177 175 0
-177 117 0
-177 298 0
176 177 -175 180 0
-175 -107 -288 178 0
-178 175 0
-178 107 0
-178 288 0
-221 -127 -308 179 0
-179 221 0
-179 127 0
-179 308 0
178 179 175 -180 0
-180 -108 -289 181 0
-181 180 0
-181 108 0
-181 289 0
-180 -118 -299 182 0
-182 180 0
-182 118 0
-182 299 0
181 182 -180 185 0
-180 -108 -289 183 0
-183 180 0
-183 108 0
-183 289 0
-226 -128 -309 184 0
-184 226 0
-184 128 0
-184 309 0
183 184 180 -185 0
-18 -11 -300 19 0
-19 18 0
-19 11 0
-19 300 0
-18 -12 -310 20 0
-20 18 0
-20 12 0
-20 310 0
19 20 -18 186 0
-13 -10 -290 21 0
-21 13 0
-21 10 0
-21 290 0
-18 -12 -310 22 0
-22 18 0
-22 12 0
-22 310 0
21 22 18 -186 0
-186 -120 -301 187 0
-187 186 0
-187 120 0
-187 301 0
-186 -130 -311 188 0
-188 186 0
-188 130 0
-188 311 0
187 188 -186 191 0
-140 -110 -291 189 0
-189 140 0
-189 110 0
-189 291 0
-186 -130 -311 190 0
-190 186 0
-190 130 0
-190 311 0
189 190 186 -191 0
-191 -121 -302 192 0
-192 191 0
-192 121 0
-192 302 0
-191 -131 -312 193 0
-193 191 0
-193 131 0
-193 312 0
192 193 -191 196 0
-145 -111 -292 194 0
-194 145 0
-194 111 0
-194 292 0
-191 -131 -312 195 0
-195 191 0
-195 131 0
-195 312 0
194 195 191 -196 0
-196 -122 -303 197 0
-197 196 0
-197 122 0
-197 303 0
-196 -132 -313 198 0
-198 196 0
-198 132 0
-198 313 0
197 198 -196 201 0
-150 -112 -293 199 0
-199 150 0
-199 112 0
-199 293 0
-196 -132 -313 200 0
-200 196 0
-200 132 0
-200 313 0
199 200 196 -201 0
-201 -123 -304 202 0
-202 201 0
-202 123 0
-202 304 0
-201 -133 -314 203 0
-203 201 0
-203 133 0
-203 314 0
202 203 -201 206 0
-155 -113 -294 204 0
-204 155 0
-204 113 0
-204 294 0
-201 -133 -314 205 0
-205 201 0
-205 133 0
-205 314 0
204 205 201 -206 0
-206 -124 -305 207 0
-207 206 0
-207 124 0
-207 305 0
-206 -134 -315 208 0
-208 206 0
-208 134 0
-208 315 0
207 208 -206 211 0
-160 -114 -295 209 0
-209 160 0
-209 114 0
-209 295 0
-206 -134 -315 210 0
-210 206 0
-210 134 0
-210 315 0
209 210 206 -211 0
-211 -125 -306 212 0
-212 211 0
-212 125 0
-212 306 0
-211 -135 -316 213 0
-213 211 0
-213 135 0
-213 316 0
212 213 -211 216 0
-165 -115 -296 214 0
-214 165 0
-214 115 0
-214 296 0
-211 -135 -316 215 0
-215 211 0
-215 135 0
-215 316 0
214 215 211 -216 0
-216 -126 -307 217 0
-217 216 0
-217 126 0
-217 307 0
-216 -136 -317 218 0
-218 216 0
-218 136 0
-218 317 0
217 218 -216 221 0
-170 -116 -297 219 0
-219 170 0
-219 116 0
-219 297 0
-216 -136 -317 220 0
-220 216 0
-220 136 0
-220 317 0
219 220 216 -221 0
-221 -127 -308 222 0
-222 221 0
-222 127 0
-222 308 0
-221 -137 -318 223 0
-223 221 0
-223 137 0
-223 318 0
222 223 -221 226 0
-175 -117 -298 224 0
-224 175 0
-224 117 0
-224 298 0
-221 -137 -318 225 0
-225 221 0
-225 137 0
-225 318 0
224 225 221 -226 0
-226 -128 -309 227 0
-227 226 0
-227 128 0
-227 309 0
-226 -138 -319 228 0
-228 226 0
-228 138 0
-228 319 0
227 228 -226 231 0
-180 -118 -299 229 0
-229 180 0
-229 118 0
-229 299 0
-226 -138 -319 230 0
-230 226 0
-230 138 0
-230 319 0
229 230 226 -231 0
-23 232 0
-13 -260 24 0
-24 13 0
-24 260 0
-18 -270 25 0
-25 18 0
-25 270 0
24 25 23 -232 0
-232 235 0
-140 -261 233 0
-233 140 0
-233 261 0
-186 -271 234 0
-234 186 0
-234 271 0
233 234 232 -235 0
-235 238 0
-145 -262 236 0
-236 145 0
-236 262 0
-191 -272 237 0
-237 191 0
-237 272 0
236 237 235 -238 0
-238 241 0
-150 -263 239 0
-239 150 0
-239 263 0
-196 -273 240 0
-240 196 0
-240 273 0
239 240 238 -241 0
-241 244 0
-155 -264 242 0
-242 155 0
-242 264 0
-201 -274 243 0
-243 201 0
-243 274 0
242 243 241 -244 0
-244 247 0
-160 -265 245 0
-245 160 0
-245 265 0
-206 -275 246 0
-246 206 0
-246 275 0
245 246 244 -247 0
-247 250 0
-165 -266 248 0
-248 165 0
-248 266 0
-211 -276 249 0
-249 211 0
-249 276 0
248 249 247 -250 0
-250 253 0
-170 -267 251 0
-251 170 0
-251 267 0
-216 -277 252 0
-252 216 0
-252 277 0
251 252 250 -253 0
-253 256 0
-175 -268 254 0
-254 175 0
-254 268 0
-221 -278 255 0
-255 221 0
-255 278 0
254 255 253 -256 0
-256 259 0
-180 -269 257 0
-257 180 0
-257 269 0
-226 -279 258 0
-258 226 0
-258 279 0
257 258 256 -259 0
-280 -290 0
-280 -300 0
-281 -291 0
-281 -301 0
-282 -292 0
-282 -302 0
-283 -293 0
-283 -303 0
-284 -294 0
-284 -304 0
-285 -295 0
-285 -305 0
-286 -296 0
-286 -306 0
-287 -297 0
-287 -307 0
-288 -298 0
-288 -308 0
-289 -299 0
-289 -309 0
-290 -300 0
-290 -310 0
-291 -301 0
-291 -311 0
-292 -302 0
-292 -312 0
-293 -303 0
-293 -313 0
-294 -304 0
-294 -314 0
-295 -305 0
-295 -315 0
-296 -306 0
-296 -316 0
-297 -307 0
-297 -317 0
-298 -308 0
-298 -318 0
-299 -309 0
-299 -319 0
-300 -310 0
-301 -311 0
-302 -312 0
-303 -313 0
-304 -314 0
-305 -315 0
-306 -316 0
-307 -317 0
-308 -318 0
-309 -319 0
